NAME
ROWS
 N  OBJ
 G  c1
 G  c2
 G  c3
 G  c4
 G  c5
 G  c6
 G  c7
 G  c8
 G  c9
 G  c10
 G  c11
 G  c12
 G  c13
 G  c14
 G  c15
 G  c16
 G  c17
 G  c18
 G  c19
 G  c20
 G  c21
 G  c22
 G  c23
 G  c24
 G  c25
 G  c26
 G  c27
 G  c28
 G  c29
 G  c30
 G  c31
 G  c32
 G  c33
 G  c34
 G  c35
 G  c36
 G  c37
 G  c38
 G  c39
 G  c40
 G  c41
 G  c42
 G  c43
 G  c44
 G  c45
 G  c46
 G  c47
 G  c48
 G  c49
 G  c50
 G  c51
 G  c52
 G  c53
 G  c54
 G  c55
 G  c56
 G  c57
 G  c58
 G  c59
 G  c60
 G  c61
 G  c62
 G  c63
 G  c64
 G  c65
 G  c66
 G  c67
 G  c68
 G  c69
 G  c70
 G  c71
 G  c72
 G  c73
 G  c74
 G  c75
 G  c76
 G  c77
 G  c78
 G  c79
 G  c80
COLUMNS
    MARKER    'MARKER'                 'INTORG'
    x[1]      c1        1
    x[1]      c6        1
    x[1]      c10       1
    x[1]      c12       1
    x[1]      c18       1
    x[1]      c21       1
    x[1]      c55       1
    x[1]      c65       1
    x[1]      c76       1
    x[1]      OBJ       1
    x[2]      c2        1
    x[2]      c4        1
    x[2]      c10       1
    x[2]      c11       1
    x[2]      c32       1
    x[2]      c33       1
    x[2]      c44       1
    x[2]      c64       1
    x[2]      c70       1
    x[2]      OBJ       1
    x[3]      c3        1
    x[3]      c31       1
    x[3]      c41       1
    x[3]      c53       1
    x[3]      c62       1
    x[3]      c70       1
    x[3]      c74       1
    x[3]      OBJ       1
    x[4]      c2        1
    x[4]      c4        1
    x[4]      c5        1
    x[4]      c13       1
    x[4]      c28       1
    x[4]      c66       1
    x[4]      c74       1
    x[4]      OBJ       1
    x[5]      c4        1
    x[5]      c5        1
    x[5]      c16       1
    x[5]      c28       1
    x[5]      c38       1
    x[5]      c39       1
    x[5]      c60       1
    x[5]      OBJ       1
    x[6]      c1        1
    x[6]      c6        1
    x[6]      c12       1
    x[6]      c16       1
    x[6]      c22       1
    x[6]      c26       1
    x[6]      c58       1
    x[6]      c64       1
    x[6]      c75       1
    x[6]      c78       1
    x[6]      OBJ       1
    x[7]      c7        1
    x[7]      c17       1
    x[7]      c19       1
    x[7]      c26       1
    x[7]      c27       1
    x[7]      c48       1
    x[7]      c50       1
    x[7]      c60       1
    x[7]      c66       1
    x[7]      c79       1
    x[7]      c80       1
    x[7]      OBJ       1
    x[8]      c8        1
    x[8]      c26       1
    x[8]      c39       1
    x[8]      c45       1
    x[8]      c64       1
    x[8]      c68       1
    x[8]      c80       1
    x[8]      OBJ       1
    x[9]      c9        1
    x[9]      c15       1
    x[9]      c29       1
    x[9]      c44       1
    x[9]      c46       1
    x[9]      c47       1
    x[9]      c48       1
    x[9]      c49       1
    x[9]      c54       1
    x[9]      c68       1
    x[9]      c78       1
    x[9]      OBJ       1
    x[10]     c1        1
    x[10]     c2        1
    x[10]     c10       1
    x[10]     c22       1
    x[10]     c34       1
    x[10]     c37       1
    x[10]     c51       1
    x[10]     c53       1
    x[10]     OBJ       1
    x[11]     c2        1
    x[11]     c11       1
    x[11]     c14       1
    x[11]     c17       1
    x[11]     c19       1
    x[11]     c24       1
    x[11]     c26       1
    x[11]     c33       1
    x[11]     c52       1
    x[11]     c56       1
    x[11]     c62       1
    x[11]     c73       1
    x[11]     c74       1
    x[11]     OBJ       1
    x[12]     c1        1
    x[12]     c6        1
    x[12]     c12       1
    x[12]     c13       1
    x[12]     c32       1
    x[12]     c47       1
    x[12]     c55       1
    x[12]     c61       1
    x[12]     c73       1
    x[12]     OBJ       1
    x[13]     c4        1
    x[13]     c12       1
    x[13]     c13       1
    x[13]     c47       1
    x[13]     c49       1
    x[13]     OBJ       1
    x[14]     c11       1
    x[14]     c14       1
    x[14]     c40       1
    x[14]     c42       1
    x[14]     c46       1
    x[14]     c48       1
    x[14]     c53       1
    x[14]     c58       1
    x[14]     c61       1
    x[14]     OBJ       1
    x[15]     c9        1
    x[15]     c15       1
    x[15]     c18       1
    x[15]     c27       1
    x[15]     c34       1
    x[15]     c50       1
    x[15]     c52       1
    x[15]     c53       1
    x[15]     c69       1
    x[15]     c74       1
    x[15]     OBJ       1
    x[16]     c5        1
    x[16]     c6        1
    x[16]     c16       1
    x[16]     c57       1
    x[16]     c62       1
    x[16]     c73       1
    x[16]     c80       1
    x[16]     OBJ       1
    x[17]     c7        1
    x[17]     c11       1
    x[17]     c17       1
    x[17]     c20       1
    x[17]     c27       1
    x[17]     c62       1
    x[17]     c71       1
    x[17]     c74       1
    x[17]     c75       1
    x[17]     c80       1
    x[17]     OBJ       1
    x[18]     c1        1
    x[18]     c15       1
    x[18]     c18       1
    x[18]     c31       1
    x[18]     c42       1
    x[18]     c46       1
    x[18]     c62       1
    x[18]     c63       1
    x[18]     c69       1
    x[18]     c72       1
    x[18]     c79       1
    x[18]     OBJ       1
    x[19]     c7        1
    x[19]     c11       1
    x[19]     c19       1
    x[19]     c29       1
    x[19]     c33       1
    x[19]     c35       1
    x[19]     c36       1
    x[19]     c40       1
    x[19]     c50       1
    x[19]     c53       1
    x[19]     c55       1
    x[19]     c61       1
    x[19]     c72       1
    x[19]     OBJ       1
    x[20]     c17       1
    x[20]     c20       1
    x[20]     c56       1
    x[20]     c62       1
    x[20]     c72       1
    x[20]     c78       1
    x[20]     OBJ       1
    x[21]     c1        1
    x[21]     c21       1
    x[21]     c22       1
    x[21]     c28       1
    x[21]     c31       1
    x[21]     c34       1
    x[21]     c42       1
    x[21]     c46       1
    x[21]     c47       1
    x[21]     c52       1
    x[21]     c56       1
    x[21]     c59       1
    x[21]     c71       1
    x[21]     OBJ       1
    x[22]     c6        1
    x[22]     c10       1
    x[22]     c21       1
    x[22]     c22       1
    x[22]     c33       1
    x[22]     c40       1
    x[22]     c47       1
    x[22]     c63       1
    x[22]     OBJ       1
    x[23]     c23       1
    x[23]     c24       1
    x[23]     c28       1
    x[23]     c35       1
    x[23]     c37       1
    x[23]     c40       1
    x[23]     c44       1
    x[23]     c49       1
    x[23]     c53       1
    x[23]     c58       1
    x[23]     c59       1
    x[23]     c62       1
    x[23]     c79       1
    x[23]     OBJ       1
    x[24]     c11       1
    x[24]     c23       1
    x[24]     c24       1
    x[24]     c30       1
    x[24]     c38       1
    x[24]     c56       1
    x[24]     c80       1
    x[24]     OBJ       1
    x[25]     c25       1
    x[25]     c26       1
    x[25]     c36       1
    x[25]     c44       1
    x[25]     c51       1
    x[25]     c52       1
    x[25]     c55       1
    x[25]     c56       1
    x[25]     c61       1
    x[25]     c65       1
    x[25]     c77       1
    x[25]     c80       1
    x[25]     OBJ       1
    x[26]     c6        1
    x[26]     c7        1
    x[26]     c8        1
    x[26]     c11       1
    x[26]     c25       1
    x[26]     c26       1
    x[26]     c28       1
    x[26]     c33       1
    x[26]     c35       1
    x[26]     c41       1
    x[26]     c48       1
    x[26]     c66       1
    x[26]     c69       1
    x[26]     c71       1
    x[26]     OBJ       1
    x[27]     c7        1
    x[27]     c15       1
    x[27]     c17       1
    x[27]     c27       1
    x[27]     c28       1
    x[27]     c39       1
    x[27]     c50       1
    x[27]     c63       1
    x[27]     c69       1
    x[27]     c78       1
    x[27]     OBJ       1
    x[28]     c4        1
    x[28]     c5        1
    x[28]     c21       1
    x[28]     c23       1
    x[28]     c26       1
    x[28]     c27       1
    x[28]     c28       1
    x[28]     c30       1
    x[28]     c32       1
    x[28]     c60       1
    x[28]     c65       1
    x[28]     c70       1
    x[28]     c75       1
    x[28]     c77       1
    x[28]     OBJ       1
    x[29]     c9        1
    x[29]     c19       1
    x[29]     c29       1
    x[29]     c60       1
    x[29]     OBJ       1
    x[30]     c24       1
    x[30]     c28       1
    x[30]     c30       1
    x[30]     c44       1
    x[30]     c46       1
    x[30]     c65       1
    x[30]     c70       1
    x[30]     OBJ       1
    x[31]     c3        1
    x[31]     c18       1
    x[31]     c21       1
    x[31]     c31       1
    x[31]     c44       1
    x[31]     c53       1
    x[31]     c61       1
    x[31]     c65       1
    x[31]     c71       1
    x[31]     OBJ       1
    x[32]     c2        1
    x[32]     c12       1
    x[32]     c28       1
    x[32]     c32       1
    x[32]     c41       1
    x[32]     c50       1
    x[32]     c61       1
    x[32]     c64       1
    x[32]     c65       1
    x[32]     OBJ       1
    x[33]     c2        1
    x[33]     c11       1
    x[33]     c19       1
    x[33]     c22       1
    x[33]     c26       1
    x[33]     c33       1
    x[33]     c34       1
    x[33]     c55       1
    x[33]     c63       1
    x[33]     OBJ       1
    x[34]     c10       1
    x[34]     c15       1
    x[34]     c21       1
    x[34]     c33       1
    x[34]     c34       1
    x[34]     c39       1
    x[34]     c61       1
    x[34]     c65       1
    x[34]     c67       1
    x[34]     c74       1
    x[34]     OBJ       1
    x[35]     c19       1
    x[35]     c23       1
    x[35]     c26       1
    x[35]     c35       1
    x[35]     c42       1
    x[35]     c51       1
    x[35]     c57       1
    x[35]     c69       1
    x[35]     c75       1
    x[35]     OBJ       1
    x[36]     c19       1
    x[36]     c25       1
    x[36]     c36       1
    x[36]     c49       1
    x[36]     c51       1
    x[36]     c66       1
    x[36]     OBJ       1
    x[37]     c10       1
    x[37]     c23       1
    x[37]     c37       1
    x[37]     c41       1
    x[37]     c71       1
    x[37]     c76       1
    x[37]     c78       1
    x[37]     OBJ       1
    x[38]     c5        1
    x[38]     c24       1
    x[38]     c38       1
    x[38]     c45       1
    x[38]     c70       1
    x[38]     OBJ       1
    x[39]     c5        1
    x[39]     c8        1
    x[39]     c27       1
    x[39]     c34       1
    x[39]     c39       1
    x[39]     c62       1
    x[39]     c69       1
    x[39]     c78       1
    x[39]     OBJ       1
    x[40]     c14       1
    x[40]     c19       1
    x[40]     c22       1
    x[40]     c23       1
    x[40]     c40       1
    x[40]     c60       1
    x[40]     c76       1
    x[40]     c77       1
    x[40]     OBJ       1
    x[41]     c3        1
    x[41]     c26       1
    x[41]     c32       1
    x[41]     c37       1
    x[41]     c41       1
    x[41]     c44       1
    x[41]     c54       1
    x[41]     c65       1
    x[41]     c77       1
    x[41]     OBJ       1
    x[42]     c14       1
    x[42]     c18       1
    x[42]     c21       1
    x[42]     c35       1
    x[42]     c42       1
    x[42]     c46       1
    x[42]     c54       1
    x[42]     c65       1
    x[42]     c75       1
    x[42]     OBJ       1
    x[43]     c43       1
    x[43]     c46       1
    x[43]     c47       1
    x[43]     c50       1
    x[43]     c57       1
    x[43]     OBJ       1
    x[44]     c2        1
    x[44]     c9        1
    x[44]     c23       1
    x[44]     c25       1
    x[44]     c30       1
    x[44]     c31       1
    x[44]     c41       1
    x[44]     c44       1
    x[44]     c55       1
    x[44]     c58       1
    x[44]     c63       1
    x[44]     c73       1
    x[44]     OBJ       1
    x[45]     c8        1
    x[45]     c38       1
    x[45]     c45       1
    x[45]     c49       1
    x[45]     c56       1
    x[45]     c72       1
    x[45]     OBJ       1
    x[46]     c9        1
    x[46]     c14       1
    x[46]     c18       1
    x[46]     c21       1
    x[46]     c30       1
    x[46]     c42       1
    x[46]     c43       1
    x[46]     c46       1
    x[46]     c53       1
    x[46]     c65       1
    x[46]     OBJ       1
    x[47]     c9        1
    x[47]     c12       1
    x[47]     c13       1
    x[47]     c21       1
    x[47]     c22       1
    x[47]     c43       1
    x[47]     c47       1
    x[47]     c48       1
    x[47]     c61       1
    x[47]     c64       1
    x[47]     OBJ       1
    x[48]     c7        1
    x[48]     c9        1
    x[48]     c14       1
    x[48]     c26       1
    x[48]     c47       1
    x[48]     c48       1
    x[48]     c60       1
    x[48]     c76       1
    x[48]     c79       1
    x[48]     OBJ       1
    x[49]     c9        1
    x[49]     c13       1
    x[49]     c23       1
    x[49]     c36       1
    x[49]     c45       1
    x[49]     c49       1
    x[49]     c58       1
    x[49]     c61       1
    x[49]     c63       1
    x[49]     c68       1
    x[49]     OBJ       1
    x[50]     c7        1
    x[50]     c15       1
    x[50]     c19       1
    x[50]     c27       1
    x[50]     c32       1
    x[50]     c43       1
    x[50]     c50       1
    x[50]     c55       1
    x[50]     c66       1
    x[50]     c79       1
    x[50]     OBJ       1
    x[51]     c10       1
    x[51]     c25       1
    x[51]     c35       1
    x[51]     c36       1
    x[51]     c51       1
    x[51]     c56       1
    x[51]     c62       1
    x[51]     c65       1
    x[51]     c72       1
    x[51]     OBJ       1
    x[52]     c11       1
    x[52]     c15       1
    x[52]     c21       1
    x[52]     c25       1
    x[52]     c52       1
    x[52]     c59       1
    x[52]     c77       1
    x[52]     c79       1
    x[52]     OBJ       1
    x[53]     c3        1
    x[53]     c10       1
    x[53]     c14       1
    x[53]     c15       1
    x[53]     c19       1
    x[53]     c23       1
    x[53]     c31       1
    x[53]     c46       1
    x[53]     c53       1
    x[53]     c61       1
    x[53]     c66       1
    x[53]     OBJ       1
    x[54]     c9        1
    x[54]     c41       1
    x[54]     c42       1
    x[54]     c54       1
    x[54]     c73       1
    x[54]     c74       1
    x[54]     OBJ       1
    x[55]     c1        1
    x[55]     c12       1
    x[55]     c19       1
    x[55]     c25       1
    x[55]     c33       1
    x[55]     c44       1
    x[55]     c50       1
    x[55]     c55       1
    x[55]     c75       1
    x[55]     OBJ       1
    x[56]     c11       1
    x[56]     c20       1
    x[56]     c21       1
    x[56]     c24       1
    x[56]     c25       1
    x[56]     c45       1
    x[56]     c51       1
    x[56]     c56       1
    x[56]     c59       1
    x[56]     c65       1
    x[56]     OBJ       1
    x[57]     c16       1
    x[57]     c35       1
    x[57]     c43       1
    x[57]     c57       1
    x[57]     c65       1
    x[57]     c71       1
    x[57]     c77       1
    x[57]     OBJ       1
    x[58]     c6        1
    x[58]     c14       1
    x[58]     c23       1
    x[58]     c44       1
    x[58]     c49       1
    x[58]     c58       1
    x[58]     c63       1
    x[58]     c64       1
    x[58]     c80       1
    x[58]     OBJ       1
    x[59]     c21       1
    x[59]     c23       1
    x[59]     c52       1
    x[59]     c56       1
    x[59]     c59       1
    x[59]     OBJ       1
    x[60]     c5        1
    x[60]     c7        1
    x[60]     c28       1
    x[60]     c29       1
    x[60]     c40       1
    x[60]     c48       1
    x[60]     c60       1
    x[60]     c71       1
    x[60]     c76       1
    x[60]     OBJ       1
    x[61]     c12       1
    x[61]     c14       1
    x[61]     c19       1
    x[61]     c25       1
    x[61]     c31       1
    x[61]     c32       1
    x[61]     c34       1
    x[61]     c47       1
    x[61]     c49       1
    x[61]     c53       1
    x[61]     c61       1
    x[61]     c62       1
    x[61]     c67       1
    x[61]     c69       1
    x[61]     OBJ       1
    x[62]     c3        1
    x[62]     c11       1
    x[62]     c16       1
    x[62]     c17       1
    x[62]     c18       1
    x[62]     c20       1
    x[62]     c23       1
    x[62]     c39       1
    x[62]     c51       1
    x[62]     c61       1
    x[62]     c62       1
    x[62]     c67       1
    x[62]     OBJ       1
    x[63]     c18       1
    x[63]     c22       1
    x[63]     c27       1
    x[63]     c33       1
    x[63]     c44       1
    x[63]     c49       1
    x[63]     c58       1
    x[63]     c63       1
    x[63]     OBJ       1
    x[64]     c2        1
    x[64]     c6        1
    x[64]     c8        1
    x[64]     c32       1
    x[64]     c47       1
    x[64]     c58       1
    x[64]     c64       1
    x[64]     c79       1
    x[64]     OBJ       1
    x[65]     c1        1
    x[65]     c25       1
    x[65]     c28       1
    x[65]     c30       1
    x[65]     c31       1
    x[65]     c32       1
    x[65]     c34       1
    x[65]     c41       1
    x[65]     c42       1
    x[65]     c46       1
    x[65]     c51       1
    x[65]     c56       1
    x[65]     c57       1
    x[65]     c65       1
    x[65]     c79       1
    x[65]     OBJ       1
    x[66]     c4        1
    x[66]     c7        1
    x[66]     c26       1
    x[66]     c36       1
    x[66]     c50       1
    x[66]     c53       1
    x[66]     c66       1
    x[66]     c74       1
    x[66]     c78       1
    x[66]     OBJ       1
    x[67]     c34       1
    x[67]     c61       1
    x[67]     c62       1
    x[67]     c67       1
    x[67]     OBJ       1
    x[68]     c8        1
    x[68]     c9        1
    x[68]     c49       1
    x[68]     c68       1
    x[68]     c75       1
    x[68]     OBJ       1
    x[69]     c15       1
    x[69]     c18       1
    x[69]     c26       1
    x[69]     c27       1
    x[69]     c35       1
    x[69]     c39       1
    x[69]     c61       1
    x[69]     c69       1
    x[69]     c72       1
    x[69]     OBJ       1
    x[70]     c2        1
    x[70]     c3        1
    x[70]     c28       1
    x[70]     c30       1
    x[70]     c38       1
    x[70]     c70       1
    x[70]     c72       1
    x[70]     c73       1
    x[70]     OBJ       1
    x[71]     c17       1
    x[71]     c21       1
    x[71]     c26       1
    x[71]     c31       1
    x[71]     c37       1
    x[71]     c57       1
    x[71]     c60       1
    x[71]     c71       1
    x[71]     c80       1
    x[71]     OBJ       1
    x[72]     c18       1
    x[72]     c19       1
    x[72]     c20       1
    x[72]     c45       1
    x[72]     c51       1
    x[72]     c69       1
    x[72]     c70       1
    x[72]     c72       1
    x[72]     c78       1
    x[72]     OBJ       1
    x[73]     c11       1
    x[73]     c12       1
    x[73]     c16       1
    x[73]     c44       1
    x[73]     c54       1
    x[73]     c70       1
    x[73]     c73       1
    x[73]     OBJ       1
    x[74]     c3        1
    x[74]     c4        1
    x[74]     c11       1
    x[74]     c15       1
    x[74]     c17       1
    x[74]     c34       1
    x[74]     c54       1
    x[74]     c66       1
    x[74]     c74       1
    x[74]     c77       1
    x[74]     OBJ       1
    x[75]     c6        1
    x[75]     c17       1
    x[75]     c28       1
    x[75]     c35       1
    x[75]     c42       1
    x[75]     c55       1
    x[75]     c68       1
    x[75]     c75       1
    x[75]     OBJ       1
    x[76]     c1        1
    x[76]     c37       1
    x[76]     c40       1
    x[76]     c48       1
    x[76]     c60       1
    x[76]     c76       1
    x[76]     OBJ       1
    x[77]     c25       1
    x[77]     c28       1
    x[77]     c40       1
    x[77]     c41       1
    x[77]     c52       1
    x[77]     c57       1
    x[77]     c74       1
    x[77]     c77       1
    x[77]     c78       1
    x[77]     OBJ       1
    x[78]     c6        1
    x[78]     c9        1
    x[78]     c20       1
    x[78]     c27       1
    x[78]     c37       1
    x[78]     c39       1
    x[78]     c66       1
    x[78]     c72       1
    x[78]     c77       1
    x[78]     c78       1
    x[78]     OBJ       1
    x[79]     c7        1
    x[79]     c18       1
    x[79]     c23       1
    x[79]     c48       1
    x[79]     c50       1
    x[79]     c52       1
    x[79]     c64       1
    x[79]     c65       1
    x[79]     c79       1
    x[79]     OBJ       1
    x[80]     c7        1
    x[80]     c8        1
    x[80]     c16       1
    x[80]     c17       1
    x[80]     c24       1
    x[80]     c25       1
    x[80]     c58       1
    x[80]     c71       1
    x[80]     c80       1
    x[80]     OBJ       1
    MARKER    'MARKER'                 'INTEND'
RHS
    rhs       c1        1
    rhs       c2        1
    rhs       c3        1
    rhs       c4        1
    rhs       c5        1
    rhs       c6        1
    rhs       c7        1
    rhs       c8        1
    rhs       c9        1
    rhs       c10       1
    rhs       c11       1
    rhs       c12       1
    rhs       c13       1
    rhs       c14       1
    rhs       c15       1
    rhs       c16       1
    rhs       c17       1
    rhs       c18       1
    rhs       c19       1
    rhs       c20       1
    rhs       c21       1
    rhs       c22       1
    rhs       c23       1
    rhs       c24       1
    rhs       c25       1
    rhs       c26       1
    rhs       c27       1
    rhs       c28       1
    rhs       c29       1
    rhs       c30       1
    rhs       c31       1
    rhs       c32       1
    rhs       c33       1
    rhs       c34       1
    rhs       c35       1
    rhs       c36       1
    rhs       c37       1
    rhs       c38       1
    rhs       c39       1
    rhs       c40       1
    rhs       c41       1
    rhs       c42       1
    rhs       c43       1
    rhs       c44       1
    rhs       c45       1
    rhs       c46       1
    rhs       c47       1
    rhs       c48       1
    rhs       c49       1
    rhs       c50       1
    rhs       c51       1
    rhs       c52       1
    rhs       c53       1
    rhs       c54       1
    rhs       c55       1
    rhs       c56       1
    rhs       c57       1
    rhs       c58       1
    rhs       c59       1
    rhs       c60       1
    rhs       c61       1
    rhs       c62       1
    rhs       c63       1
    rhs       c64       1
    rhs       c65       1
    rhs       c66       1
    rhs       c67       1
    rhs       c68       1
    rhs       c69       1
    rhs       c70       1
    rhs       c71       1
    rhs       c72       1
    rhs       c73       1
    rhs       c74       1
    rhs       c75       1
    rhs       c76       1
    rhs       c77       1
    rhs       c78       1
    rhs       c79       1
    rhs       c80       1
RANGES
BOUNDS
 BV bounds    x[1]
 BV bounds    x[2]
 BV bounds    x[3]
 BV bounds    x[4]
 BV bounds    x[5]
 BV bounds    x[6]
 BV bounds    x[7]
 BV bounds    x[8]
 BV bounds    x[9]
 BV bounds    x[10]
 BV bounds    x[11]
 BV bounds    x[12]
 BV bounds    x[13]
 BV bounds    x[14]
 BV bounds    x[15]
 BV bounds    x[16]
 BV bounds    x[17]
 BV bounds    x[18]
 BV bounds    x[19]
 BV bounds    x[20]
 BV bounds    x[21]
 BV bounds    x[22]
 BV bounds    x[23]
 BV bounds    x[24]
 BV bounds    x[25]
 BV bounds    x[26]
 BV bounds    x[27]
 BV bounds    x[28]
 BV bounds    x[29]
 BV bounds    x[30]
 BV bounds    x[31]
 BV bounds    x[32]
 BV bounds    x[33]
 BV bounds    x[34]
 BV bounds    x[35]
 BV bounds    x[36]
 BV bounds    x[37]
 BV bounds    x[38]
 BV bounds    x[39]
 BV bounds    x[40]
 BV bounds    x[41]
 BV bounds    x[42]
 BV bounds    x[43]
 BV bounds    x[44]
 BV bounds    x[45]
 BV bounds    x[46]
 BV bounds    x[47]
 BV bounds    x[48]
 BV bounds    x[49]
 BV bounds    x[50]
 BV bounds    x[51]
 BV bounds    x[52]
 BV bounds    x[53]
 BV bounds    x[54]
 BV bounds    x[55]
 BV bounds    x[56]
 BV bounds    x[57]
 BV bounds    x[58]
 BV bounds    x[59]
 BV bounds    x[60]
 BV bounds    x[61]
 BV bounds    x[62]
 BV bounds    x[63]
 BV bounds    x[64]
 BV bounds    x[65]
 BV bounds    x[66]
 BV bounds    x[67]
 BV bounds    x[68]
 BV bounds    x[69]
 BV bounds    x[70]
 BV bounds    x[71]
 BV bounds    x[72]
 BV bounds    x[73]
 BV bounds    x[74]
 BV bounds    x[75]
 BV bounds    x[76]
 BV bounds    x[77]
 BV bounds    x[78]
 BV bounds    x[79]
 BV bounds    x[80]
ENDATA
